unknown
(model
; cardinality of BoundSet is 2
(declare-sort BoundSet 0)
; rep: @uc_BoundSet_0
; rep: @uc_BoundSet_1
(declare-sort UnboundSet 0)
(define-fun IsWanted ((BOUND_VARIABLE_336 BoundSet) (BOUND_VARIABLE_337 BoundSet)) Bool true)
(define-fun IsTerriblePerson ((BOUND_VARIABLE_346 BoundSet)) Bool false)
)
